(set-logic QF_LRA)
(declare-fun X0 () Real )
(declare-fun Y0 () Real )
(declare-fun X1 () Real )
(declare-fun Y1 () Real )
(declare-fun X2 () Real )
(declare-fun Y2 () Real )
(declare-fun X3 () Real )
(declare-fun Y3 () Real )
(declare-fun X4 () Real )
(declare-fun Y4 () Real )
(declare-fun X5 () Real )
(declare-fun Y5 () Real )
(declare-fun Z () Real )
(assert ( and  
( or ( <= ( + X0 45 ) X1 )  ( <= ( + X1 59 ) X0 )  ( <= ( + Y0 90 ) Y1 )  ( <= ( + Y1 39 ) Y0 )  )
( or ( <= ( + X0 45 ) X2 )  ( <= ( + X2 50 ) X0 )  ( <= ( + Y0 90 ) Y2 )  ( <= ( + Y2 13 ) Y0 )  )
( or ( <= ( + X0 45 ) X3 )  ( <= ( + X3 75 ) X0 )  ( <= ( + Y0 90 ) Y3 )  ( <= ( + Y3 96 ) Y0 )  )
( or ( <= ( + X0 45 ) X4 )  ( <= ( + X4 27 ) X0 )  ( <= ( + Y0 90 ) Y4 )  ( <= ( + Y4 97 ) Y0 )  )
( or ( <= ( + X0 45 ) X5 )  ( <= ( + X5 91 ) X0 )  ( <= ( + Y0 90 ) Y5 )  ( <= ( + Y5 71 ) Y0 )  )
( or ( <= ( + X1 59 ) X2 )  ( <= ( + X2 50 ) X1 )  ( <= ( + Y1 39 ) Y2 )  ( <= ( + Y2 13 ) Y1 )  )
( or ( <= ( + X1 59 ) X3 )  ( <= ( + X3 75 ) X1 )  ( <= ( + Y1 39 ) Y3 )  ( <= ( + Y3 96 ) Y1 )  )
( or ( <= ( + X1 59 ) X4 )  ( <= ( + X4 27 ) X1 )  ( <= ( + Y1 39 ) Y4 )  ( <= ( + Y4 97 ) Y1 )  )
( or ( <= ( + X1 59 ) X5 )  ( <= ( + X5 91 ) X1 )  ( <= ( + Y1 39 ) Y5 )  ( <= ( + Y5 71 ) Y1 )  )
( or ( <= ( + X2 50 ) X3 )  ( <= ( + X3 75 ) X2 )  ( <= ( + Y2 13 ) Y3 )  ( <= ( + Y3 96 ) Y2 )  )
( or ( <= ( + X2 50 ) X4 )  ( <= ( + X4 27 ) X2 )  ( <= ( + Y2 13 ) Y4 )  ( <= ( + Y4 97 ) Y2 )  )
( or ( <= ( + X2 50 ) X5 )  ( <= ( + X5 91 ) X2 )  ( <= ( + Y2 13 ) Y5 )  ( <= ( + Y5 71 ) Y2 )  )
( or ( <= ( + X3 75 ) X4 )  ( <= ( + X4 27 ) X3 )  ( <= ( + Y3 96 ) Y4 )  ( <= ( + Y4 97 ) Y3 )  )
( or ( <= ( + X3 75 ) X5 )  ( <= ( + X5 91 ) X3 )  ( <= ( + Y3 96 ) Y5 )  ( <= ( + Y5 71 ) Y3 )  )
( or ( <= ( + X4 27 ) X5 )  ( <= ( + X5 91 ) X4 )  ( <= ( + Y4 97 ) Y5 )  ( <= ( + Y5 71 ) Y4 )  )
( >= X0 0)
( <= ( + X0 45) Z)
( >= Y0 0)
( <= ( + Y0 90 ) 122)
( >= X1 0)
( <= ( + X1 59) Z)
( >= Y1 0)
( <= ( + Y1 39 ) 122)
( >= X2 0)
( <= ( + X2 50) Z)
( >= Y2 0)
( <= ( + Y2 13 ) 122)
( >= X3 0)
( <= ( + X3 75) Z)
( >= Y3 0)
( <= ( + Y3 96 ) 122)
( >= X4 0)
( <= ( + X4 27) Z)
( >= Y4 0)
( <= ( + Y4 97 ) 122)
( >= X5 0)
( <= ( + X5 91) Z)
( >= Y5 0)
( <= ( + Y5 71 ) 122)
) )
(minimize Z)
(check-sat)
